Solver command line: ['C:\\gurobi1002\\win64\\bin\\gurobi.bat']

Set parameter Username
Academic license - for non-commercial use only - expires 2024-08-20
Read LP format model from file C:\Users\mhafeman\AppData\Local\Temp\tmpyh7sx_9b.pyomo.lp
Reading time = 0.01 seconds
obj: 757 rows, 671 columns, 1823 nonzeros
Gurobi Optimizer version 10.0.2 build v10.0.2rc0 (win64)

CPU model: AMD Ryzen 7 3800X 8-Core Processor, instruction set [SSE2|AVX|AVX2]
Thread count: 8 physical cores, 16 logical processors, using up to 16 threads

Optimize a model with 757 rows, 671 columns and 1823 nonzeros
Model fingerprint: 0x586ad2a3
Model has 23 quadratic constraints
Variable types: 480 continuous, 191 integer (144 binary)
Coefficient statistics:
  Matrix range     [1e-04, 3e+02]
  QMatrix range    [1e+00, 1e+00]
  Objective range  [1e+01, 6e+01]
  Bounds range     [1e+00, 3e+00]
  RHS range        [2e-02, 1e+01]
Presolve removed 641 rows and 531 columns
Presolve time: 0.00s
Presolved: 116 rows, 140 columns, 336 nonzeros
Variable types: 70 continuous, 70 integer (70 binary)
Found heuristic solution: objective -1128.542133
Found heuristic solution: objective -1133.542133

Root relaxation: objective -1.247498e+03, 25 iterations, 0.00 seconds (0.00 work units)

    Nodes    |    Current Node    |     Objective Bounds      |     Work
 Expl Unexpl |  Obj  Depth IntInf | Incumbent    BestBd   Gap | It/Node Time

*    0     0               0    -1247.498306 -1247.4983  0.00%     -    0s

Explored 1 nodes (25 simplex iterations) in 0.01 seconds (0.00 work units)
Thread count was 16 (of 16 available processors)

Solution count 3: -1247.5 -1133.54 -1128.54 
No other solutions better than -1247.5

Optimal solution found (tolerance 1.00e-04)
Best objective -1.247498305684e+03, best bound -1.247498305684e+03, gap 0.0000%

